459
c FILE: DSJC125.1
c
c SOURCE: David Johnson (dsj@research.att.com)
c
c DESCRIPTION: Random graph used in the paper
c              "Optimization by Simulated Annealing: An
c               Experimental Evaluation; Part II, Graph
c               Coloring and Number Partitioning" by
c              David S. Johnson, Cecilia R. Aragon,
c              Lyle A. McGeoch and Catherine Schevon
c              Operations Research, 39, 378-406 (1991)
c
p edge 125 1472
e 1 4
e 1 5
e 1 7
e 1 12
e 1 13
e 1 15
e 1 17
e 1 20
e 1 21
e 1 22
e 1 25
e 1 30
e 1 32
e 1 35
e 1 36
e 1 40
e 1 41
e 1 44
e 1 51
e 1 55
e 1 56
e 1 59
e 1 62
e 1 65
e 1 67
e 1 70
e 1 71
e 1 75
e 1 79
e 1 81
e 1 84
e 1 85
e 1 86
e 1 88
e 1 92
e 1 99
e 1 103
e 1 107
e 1 109
e 1 112
e 1 113
e 1 115
e 1 118
e 1 120
e 1 123
e 2 5
e 2 6
e 2 9
e 2 10
e 2 14
e 2 17
e 2 18
e 2 21
e 2 25
e 2 26
e 2 28
e 2 30
e 2 33
e 2 35
e 2 36
e 2 37
e 2 41
e 2 42
e 2 46
e 2 51
e 2 53
e 2 56
e 2 57
e 2 61
e 2 62
e 2 67
e 2 69
e 2 72
e 2 73
e 2 77
e 2 78
e 2 81
e 2 88
e 2 90
e 2 93
e 2 94
e 2 96
e 2 99
e 2 100
e 2 101
e 2 102
e 2 104
e 2 106
e 2 108
e 2 110
e 2 112
e 2 114
e 2 117
e 2 120
e 2 125
e 3 4
e 3 6
e 3 10
e 3 12
e 3 15
e 3 16
e 3 17
e 3 19
e 3 23
e 3 30
e 3 34
e 3 38
e 3 39
e 3 44
e 3 46
e 3 47
e 3 48
e 3 50
e 3 51
e 3 54
e 3 55
e 3 57
e 3 60
e 3 62
e 3 63
e 3 66
e 3 71
e 3 78
e 3 81
e 3 83
e 3 86
e 3 87
e 3 89
e 3 90
e 3 91
e 3 92
e 3 94
e 3 95
e 3 97
e 3 102
e 3 103
e 3 105
e 3 106
e 3 107
e 3 110
e 3 111
e 3 112
e 3 115
e 3 116
e 3 118
e 3 119
e 3 121
e 3 122
e 3 123
e 3 124
e 4 5
e 4 6
e 4 8
e 4 9
e 4 10
e 4 14
e 4 22
e 4 24
e 4 29
e 4 30
e 4 33
e 4 37
e 4 38
e 4 39
e 4 42
e 4 43
e 4 45
e 4 46
e 4 48
e 4 50
e 4 53
e 4 61
e 4 62
e 4 63
e 4 66
e 4 69
e 4 70
e 4 73
e 4 75
e 4 77
e 4 78
e 4 79
e 4 82
e 4 83
e 4 85
e 4 86
e 4 89
e 4 91
e 4 93
e 4 94
e 4 99
e 4 101
e 4 102
e 4 103
e 4 106
e 4 109
e 4 110
e 4 114
e 4 115
e 4 117
e 4 118
e 4 120
e 5 6
e 5 8
e 5 9
e 5 10
e 5 13
e 5 14
e 5 19
e 5 21
e 5 22
e 5 23
e 5 25
e 5 29
e 5 30
e 5 31
e 5 33
e 5 38
e 5 40
e 5 41
e 5 42
e 5 45
e 5 46
e 5 50
e 5 51
e 5 53
e 5 54
e 5 56
e 5 57
e 5 58
e 5 59
e 5 61
e 5 62
e 5 64
e 5 65
e 5 67
e 5 70
e 5 72
e 5 75
e 5 80
e 5 82
e 5 85
e 5 86
e 5 90
e 5 91
e 5 96
e 5 98
e 5 101
e 5 102
e 5 106
e 5 107
e 5 110
e 5 117
e 5 121
e 5 125
e 6 10
e 6 12
e 6 14
e 6 16
e 6 19
e 6 20
e 6 22
e 6 27
e 6 28
e 6 30
e 6 32
e 6 35
e 6 38
e 6 41
e 6 44
e 6 46
e 6 48
e 6 54
e 6 56
e 6 58
e 6 62
e 6 65
e 6 68
e 6 70
e 6 73
e 6 74
e 6 75
e 6 76
e 6 78
e 6 81
e 6 82
e 6 83
e 6 87
e 6 88
e 6 89
e 6 91
e 6 95
e 6 102
e 6 104
e 6 107
e 6 110
e 6 111
e 6 116
e 6 118
e 6 119
e 6 121
e 6 122
e 6 123
e 7 8
e 7 9
e 7 12
e 7 16
e 7 17
e 7 19
e 7 20
e 7 21
e 7 22
e 7 24
e 7 25
e 7 27
e 7 28
e 7 30
e 7 33
e 7 40
e 7 41
e 7 44
e 7 45
e 7 46
e 7 48
e 7 49
e 7 50
e 7 53
e 7 56
e 7 57
e 7 62
e 7 64
e 7 65
e 7 66
e 7 72
e 7 73
e 7 75
e 7 81
e 7 88
e 7 89
e 7 90
e 7 92
e 7 94
e 7 96
e 7 97
e 7 98
e 7 101
e 7 102
e 7 104
e 7 105
e 7 108
e 7 110
e 7 112
e 7 113
e 7 116
e 7 121
e 8 11
e 8 12
e 8 14
e 8 17
e 8 19
e 8 20
e 8 22
e 8 23
e 8 24
e 8 28
e 8 35
e 8 36
e 8 37
e 8 39
e 8 43
e 8 44
e 8 46
e 8 51
e 8 52
e 8 55
e 8 57
e 8 60
e 8 67
e 8 68
e 8 69
e 8 75
e 8 76
e 8 81
e 8 83
e 8 84
e 8 85
e 8 91
e 8 92
e 8 95
e 8 97
e 8 99
e 8 100
e 8 101
e 8 104
e 8 110
e 8 112
e 8 115
e 8 116
e 8 120
e 8 121
e 8 124
e 9 16
e 9 24
e 9 32
e 9 40
e 9 48
e 9 56
e 9 64
e 9 72
e 9 80
e 9 88
e 9 96
e 9 104
e 9 112
e 9 120
e 9 124
e 10 12
e 10 15
e 10 16
e 10 17
e 10 18
e 10 20
e 10 21
e 10 22
e 10 28
e 10 29
e 10 30
e 10 32
e 10 36
e 10 37
e 10 39
e 10 42
e 10 44
e 10 45
e 10 47
e 10 48
e 10 50
e 10 52
e 10 53
e 10 55
e 10 58
e 10 60
e 10 61
e 10 62
e 10 63
e 10 65
e 10 68
e 10 69
e 10 74
e 10 76
e 10 77
e 10 78
e 10 80
e 10 84
e 10 85
e 10 87
e 10 90
e 10 92
e 10 93
e 10 95
e 10 96
e 10 97
e 10 98
e 10 100
e 10 101
e 10 103
e 10 104
e 10 105
e 10 109
e 10 116
e 10 117
e 10 121
e 10 124
e 10 125
e 11 12
e 11 13
e 11 16
e 11 19
e 11 26
e 11 28
e 11 31
e 11 32
e 11 34
e 11 35
e 11 37
e 11 40
e 11 42
e 11 43
e 11 45
e 11 46
e 11 48
e 11 50
e 11 51
e 11 52
e 11 54
e 11 56
e 11 58
e 11 59
e 11 61
e 11 62
e 11 66
e 11 67
e 11 72
e 11 74
e 11 75
e 11 76
e 11 78
e 11 82
e 11 83
e 11 86
e 11 88
e 11 90
e 11 91
e 11 94
e 11 99
e 11 106
e 11 112
e 11 114
e 11 115
e 11 117
e 11 118
e 11 119
e 11 122
e 11 123
e 11 125
e 12 13
e 12 14
e 12 17
e 12 18
e 12 21
e 12 23
e 12 25
e 12 26
e 12 31
e 12 33
e 12 34
e 12 36
e 12 37
e 12 41
e 12 42
e 12 44
e 12 47
e 12 49
e 12 50
e 12 52
e 12 53
e 12 54
e 12 57
e 12 58
e 12 61
e 12 62
e 12 63
e 12 66
e 12 67
e 12 68
e 12 70
e 12 74
e 12 81
e 12 87
e 12 89
e 12 90
e 12 92
e 12 93
e 12 94
e 12 100
e 12 102
e 12 105
e 12 106
e 12 110
e 12 111
e 12 114
e 12 122
e 13 18
e 13 26
e 13 34
e 13 42
e 13 50
e 13 58
e 13 66
e 13 74
e 13 82
e 13 90
e 13 98
e 13 106
e 13 114
e 13 121
e 13 125
e 14 16
e 14 18
e 14 19
e 14 20
e 14 21
e 14 26
e 14 27
e 14 28
e 14 34
e 14 35
e 14 38
e 14 40
e 14 42
e 14 43
e 14 44
e 14 47
e 14 50
e 14 51
e 14 53
e 14 56
e 14 58
e 14 59
e 14 61
e 14 62
e 14 64
e 14 66
e 14 67
e 14 70
e 14 72
e 14 74
e 14 75
e 14 77
e 14 78
e 14 79
e 14 82
e 14 83
e 14 84
e 14 86
e 14 90
e 14 91
e 14 96
e 14 98
e 14 99
e 14 101
e 14 102
e 14 107
e 14 114
e 14 118
e 14 120
e 14 122
e 14 123
e 14 124
e 15 16
e 15 17
e 15 20
e 15 21
e 15 26
e 15 28
e 15 29
e 15 31
e 15 32
e 15 36
e 15 37
e 15 38
e 15 40
e 15 42
e 15 44
e 15 45
e 15 50
e 15 52
e 15 53
e 15 54
e 15 56
e 15 60
e 15 61
e 15 63
e 15 66
e 15 68
e 15 69
e 15 71
e 15 72
e 15 73
e 15 74
e 15 76
e 15 77
e 15 79
e 15 80
e 15 81
e 15 85
e 15 86
e 15 87
e 15 89
e 15 90
e 15 93
e 15 100
e 15 102
e 15 108
e 15 109
e 15 114
e 15 116
e 15 117
e 15 118
e 15 121
e 15 124
e 15 125
e 16 17
e 16 19
e 16 24
e 16 31
e 16 34
e 16 37
e 16 39
e 16 42
e 16 45
e 16 48
e 16 50
e 16 51
e 16 56
e 16 63
e 16 67
e 16 68
e 16 69
e 16 71
e 16 72
e 16 73
e 16 76
e 16 79
e 16 80
e 16 85
e 16 87
e 16 88
e 16 89
e 16 95
e 16 96
e 16 98
e 16 106
e 16 108
e 16 111
e 16 112
e 16 116
e 16 117
e 16 120
e 17 20
e 17 28
e 17 36
e 17 44
e 17 52
e 17 60
e 17 68
e 17 76
e 17 84
e 17 92
e 17 100
e 17 108
e 17 116
e 17 124
e 18 24
e 18 29
e 18 30
e 18 32
e 18 33
e 18 35
e 18 36
e 18 37
e 18 38
e 18 40
e 18 41
e 18 43
e 18 44
e 18 48
e 18 49
e 18 51
e 18 52
e 18 53
e 18 54
e 18 56
e 18 57
e 18 58
e 18 61
e 18 64
e 18 65
e 18 67
e 18 70
e 18 72
e 18 73
e 18 75
e 18 76
e 18 77
e 18 80
e 18 81
e 18 84
e 18 85
e 18 86
e 18 89
e 18 96
e 18 97
e 18 102
e 18 104
e 18 105
e 18 107
e 18 108
e 18 109
e 18 112
e 18 113
e 18 116
e 18 121
e 19 22
e 19 25
e 19 26
e 19 27
e 19 30
e 19 31
e 19 32
e 19 34
e 19 36
e 19 38
e 19 39
e 19 41
e 19 42
e 19 44
e 19 46
e 19 47
e 19 51
e 19 54
e 19 55
e 19 58
e 19 60
e 19 62
e 19 63
e 19 64
e 19 67
e 19 71
e 19 78
e 19 80
e 19 86
e 19 87
e 19 92
e 19 94
e 19 95
e 19 96
e 19 99
e 19 102
e 19 103
e 19 104
e 19 106
e 19 110
e 19 111
e 19 113
e 19 116
e 19 118
e 19 119
e 19 120
e 19 122
e 20 21
e 20 22
e 20 24
e 20 27
e 20 29
e 20 30
e 20 32
e 20 33
e 20 34
e 20 35
e 20 37
e 20 38
e 20 40
e 20 41
e 20 42
e 20 45
e 20 46
e 20 48
e 20 51
e 20 53
e 20 54
e 20 56
e 20 57
e 20 58
e 20 61
e 20 62
e 20 65
e 20 66
e 20 67
e 20 70
e 20 74
e 20 78
e 20 85
e 20 86
e 20 90
e 20 93
e 20 94
e 20 95
e 20 96
e 20 99
e 20 104
e 20 106
e 20 109
e 20 110
e 20 114
e 20 115
e 20 118
e 21 22
e 21 30
e 21 38
e 21 46
e 21 54
e 21 62
e 21 70
e 21 78
e 21 86
e 21 94
e 21 102
e 21 110
e 21 118
e 21 125
e 22 26
e 22 30
e 22 31
e 22 36
e 22 38
e 22 39
e 22 40
e 22 42
e 22 43
e 22 46
e 22 47
e 22 49
e 22 52
e 22 54
e 22 55
e 22 58
e 22 63
e 22 70
e 22 72
e 22 75
e 22 76
e 22 79
e 22 81
e 22 82
e 22 83
e 22 87
e 22 94
e 22 97
e 22 99
e 22 102
e 22 103
e 22 105
e 22 106
e 22 107
e 22 108
e 22 110
e 22 111
e 22 113
e 22 118
e 22 119
e 22 121
e 22 122
e 22 123
e 23 24
e 23 25
e 23 26
e 23 29
e 23 30
e 23 32
e 23 33
e 23 35
e 23 36
e 23 37
e 23 38
e 23 40
e 23 41
e 23 43
e 23 44
e 23 45
e 23 49
e 23 51
e 23 52
e 23 57
e 23 64
e 23 69
e 23 70
e 23 72
e 23 73
e 23 76
e 23 78
e 23 80
e 23 81
e 23 85
e 23 86
e 23 88
e 23 89
e 23 91
e 23 94
e 23 96
e 23 97
e 23 99
e 23 100
e 23 104
e 23 105
e 23 107
e 23 110
e 23 112
e 23 113
e 23 118
e 23 121
e 24 27
e 24 29
e 24 32
e 24 36
e 24 38
e 24 39
e 24 40
e 24 44
e 24 51
e 24 57
e 24 59
e 24 60
e 24 61
e 24 64
e 24 67
e 24 68
e 24 73
e 24 75
e 24 76
e 24 79
e 24 80
e 24 81
e 24 83
e 24 84
e 24 86
e 24 87
e 24 88
e 24 89
e 24 91
e 24 92
e 24 94
e 24 95
e 24 96
e 24 100
e 24 102
e 24 103
e 24 108
e 24 118
e 24 120
e 24 123
e 24 124
e 25 28
e 25 29
e 25 32
e 25 40
e 25 48
e 25 56
e 25 64
e 25 72
e 25 80
e 25 88
e 25 96
e 25 104
e 25 112
e 25 120
e 26 29
e 26 37
e 26 44
e 26 47
e 26 48
e 26 52
e 26 53
e 26 54
e 26 55
e 26 58
e 26 60
e 26 61
e 26 63
e 26 64
e 26 68
e 26 69
e 26 72
e 26 74
e 26 77
e 26 84
e 26 90
e 26 93
e 26 95
e 26 96
e 26 97
e 26 101
e 26 108
e 26 111
e 26 112
e 26 114
e 26 116
e 26 117
e 26 121
e 26 122
e 26 124
e 27 30
e 27 31
e 27 32
e 27 34
e 27 35
e 27 38
e 27 40
e 27 42
e 27 43
e 27 45
e 27 46
e 27 47
e 27 48
e 27 50
e 27 51
e 27 55
e 27 56
e 27 58
e 27 59
e 27 61
e 27 67
e 27 74
e 27 75
e 27 80
e 27 82
e 27 83
e 27 85
e 27 86
e 27 87
e 27 90
e 27 91
e 27 94
e 27 99
e 27 106
e 27 111
e 27 112
e 27 114
e 27 115
e 27 120
e 27 122
e 27 123
e 27 124
e 28 29
e 28 33
e 28 34
e 28 36
e 28 41
e 28 42
e 28 45
e 28 47
e 28 49
e 28 50
e 28 51
e 28 54
e 28 57
e 28 58
e 28 60
e 28 63
e 28 65
e 28 66
e 28 68
e 28 69
e 28 70
e 28 73
e 28 74
e 28 77
e 28 79
e 28 82
e 28 89
e 28 91
e 28 94
e 28 95
e 28 97
e 28 98
e 28 102
e 28 103
e 28 105
e 28 106
e 28 108
e 28 113
e 28 114
e 28 117
e 28 119
e 28 121
e 28 122
e 28 123
e 28 125
e 29 30
e 29 33
e 29 34
e 29 36
e 29 37
e 29 38
e 29 39
e 29 41
e 29 42
e 29 44
e 29 45
e 29 46
e 29 52
e 29 54
e 29 57
e 29 58
e 29 62
e 29 63
e 29 66
e 29 74
e 29 82
e 29 90
e 29 98
e 29 106
e 29 114
e 29 122
e 30 35
e 30 43
e 30 51
e 30 59
e 30 67
e 30 75
e 30 82
e 30 85
e 30 86
e 30 87
e 30 88
e 30 90
e 30 91
e 30 92
e 30 98
e 30 99
e 30 102
e 30 104
e 30 106
e 30 107
e 30 108
e 30 111
e 30 114
e 30 115
e 30 120
e 30 122
e 30 123
e 30 124
e 31 32
e 31 36
e 31 37
e 31 39
e 31 42
e 31 44
e 31 45
e 31 47
e 31 48
e 31 49
e 31 50
e 31 52
e 31 53
e 31 55
e 31 56
e 31 57
e 31 60
e 31 61
e 31 62
e 31 65
e 31 66
e 31 69
e 31 76
e 31 78
e 31 81
e 31 84
e 31 85
e 31 88
e 31 90
e 31 92
e 31 93
e 31 94
e 31 97
e 31 98
e 31 100
e 31 101
e 31 104
e 31 106
e 31 108
e 31 109
e 31 114
e 31 116
e 31 117
e 31 118
e 31 121
e 31 124
e 31 125
e 32 36
e 32 37
e 32 39
e 32 40
e 32 42
e 32 48
e 32 50
e 32 51
e 32 56
e 32 64
e 32 65
e 32 68
e 32 69
e 32 72
e 32 73
e 32 74
e 32 77
e 32 80
e 32 82
e 32 83
e 32 88
e 32 96
e 32 97
e 32 100
e 32 101
e 32 104
e 32 105
e 32 107
e 32 108
e 32 109
e 32 112
e 32 113
e 32 114
e 32 120
e 32 122
e 32 123
e 32 125
e 33 36
e 33 37
e 33 39
e 33 44
e 33 45
e 33 52
e 33 53
e 33 55
e 33 56
e 33 60
e 33 68
e 33 70
e 33 76
e 33 77
e 33 81
e 33 84
e 33 85
e 33 86
e 33 89
e 33 92
e 33 93
e 33 94
e 33 97
e 33 100
e 33 101
e 33 105
e 33 108
e 33 110
e 33 113
e 33 118
e 33 120
e 33 123
e 33 124
e 34 37
e 34 38
e 34 43
e 34 45
e 34 48
e 34 49
e 34 50
e 34 57
e 34 64
e 34 65
e 34 68
e 34 70
e 34 72
e 34 73
e 34 76
e 34 80
e 34 81
e 34 84
e 34 85
e 34 86
e 34 88
e 34 89
e 34 92
e 34 94
e 34 97
e 34 105
e 34 106
e 34 110
e 34 113
e 34 114
e 34 117
e 34 121
e 34 122
e 34 124
e 35 36
e 35 39
e 35 47
e 35 48
e 35 52
e 35 55
e 35 56
e 35 58
e 35 63
e 35 64
e 35 66
e 35 67
e 35 68
e 35 71
e 35 72
e 35 75
e 35 81
e 35 83
e 35 117
e 36 37
e 36 55
e 36 63
e 36 65
e 36 93
e 37 40
e 37 58
e 37 60
e 37 64
e 37 75
e 37 93
e 37 95
e 37 101
e 38 48
e 38 65
e 38 68
e 38 71
e 38 115
e 38 116
e 39 63
e 39 83
e 39 115
e 39 121
e 40 43
e 40 99
e 40 103
e 41 54
e 41 62
e 41 64
e 41 78
e 41 101
e 41 114
e 41 124
e 42 54
e 42 68
e 42 85
e 42 92
e 42 101
e 42 108
e 43 50
e 43 92
e 43 112
e 43 123
e 43 125
e 44 51
e 44 54
e 44 55
e 44 63
e 44 99
e 44 106
e 44 114
e 45 52
e 45 61
e 45 82
e 45 83
e 45 85
e 45 96
e 46 66
e 46 82
e 46 117
e 46 123
e 47 49
e 47 58
e 47 64
e 47 77
e 47 96
e 47 97
e 47 98
e 47 102
e 47 109
e 47 115
e 48 90
e 48 94
e 48 96
e 48 110
e 49 67
e 49 97
e 49 105
e 50 56
e 50 64
e 50 66
e 50 67
e 50 79
e 50 80
e 50 90
e 50 114
e 50 122
e 51 58
e 51 64
e 51 74
e 51 95
e 51 100
e 52 60
e 52 88
e 52 94
e 53 57
e 53 58
e 53 59
e 53 67
e 53 76
e 53 82
e 53 98
e 53 108
e 53 118
e 54 55
e 54 61
e 54 62
e 54 68
e 54 85
e 54 88
e 54 90
e 54 93
e 54 104
e 54 124
e 54 125
e 55 63
e 55 90
e 55 92
e 55 106
e 56 71
e 56 78
e 56 97
e 56 120
e 57 62
e 57 80
e 57 86
e 57 87
e 57 91
e 57 96
e 57 99
e 58 61
e 58 64
e 58 70
e 58 90
e 58 96
e 58 108
e 58 112
e 58 118
e 58 125
e 59 66
e 59 88
e 59 97
e 60 64
e 60 67
e 60 70
e 60 95
e 60 116
e 60 121
e 61 66
e 61 72
e 62 72
e 62 73
e 62 89
e 62 94
e 62 97
e 62 111
e 62 116
e 63 65
e 63 70
e 63 76
e 63 85
e 63 90
e 63 92
e 63 98
e 63 106
e 63 114
e 63 119
e 64 66
e 64 74
e 64 75
e 64 76
e 64 77
e 64 88
e 64 96
e 64 109
e 64 114
e 64 115
e 64 118
e 64 120
e 64 123
e 64 124
e 65 76
e 65 77
e 65 118
e 66 72
e 66 75
e 66 85
e 66 87
e 66 88
e 66 99
e 66 102
e 66 115
e 66 120
e 67 72
e 67 73
e 67 84
e 67 94
e 67 117
e 67 122
e 67 123
e 68 69
e 68 70
e 68 79
e 68 88
e 68 113
e 68 115
e 69 73
e 69 77
e 69 78
e 69 89
e 69 98
e 69 102
e 69 104
e 69 112
e 69 114
e 70 106
e 70 119
e 71 73
e 71 83
e 71 106
e 71 108
e 71 117
e 72 74
e 72 78
e 72 108
e 72 112
e 72 114
e 72 116
e 73 96
e 73 97
e 73 100
e 73 101
e 73 103
e 74 101
e 74 113
e 75 80
e 75 96
e 75 116
e 75 124
e 76 89
e 76 102
e 76 103
e 77 94
e 77 96
e 77 99
e 77 111
e 78 88
e 78 90
e 78 91
e 78 112
e 79 95
e 79 99
e 79 102
e 79 105
e 79 113
e 80 88
e 80 95
e 80 115
e 81 83
e 82 84
e 82 87
e 82 88
e 82 116
e 83 84
e 83 90
e 83 92
e 83 95
e 83 100
e 84 104
e 84 106
e 84 108
e 84 110
e 85 96
e 85 114
e 85 117
e 85 119
e 85 120
e 85 123
e 86 89
e 86 116
e 87 105
e 87 111
e 88 94
e 88 97
e 88 106
e 88 107
e 88 119
e 89 108
e 90 103
e 90 108
e 90 115
e 91 94
e 91 121
e 92 99
e 92 115
e 92 123
e 93 105
e 93 115
e 93 123
e 96 98
e 96 99
e 96 115
e 96 119
e 97 102
e 97 105
e 97 116
e 97 123
e 98 112
e 98 116
e 98 118
e 98 119
e 99 113
e 100 120
e 100 125
e 101 105
e 101 120
e 102 104
e 102 121
e 102 125
e 103 107
e 103 111
e 103 112
e 103 115
e 103 118
e 104 115
e 104 122
e 105 106
e 105 109
e 105 110
e 105 116
e 106 111
e 106 112
e 107 124
e 108 109
e 108 118
e 108 119
e 109 111
e 110 121
e 111 121
e 113 119
e 114 116
e 115 116
e 115 117
e 116 123
e 119 122
e 122 123
e 122 124